126	178
126.1	178
126.2	178
126.3	178.01
126.4	178.02
126.5	178.03
126.6	178.06
126.7	178.09
126.8	178.13
126.9	178.17
127	178.23
127.1	178.3
127.2	178.38
127.3	178.47
127.4	178.57
127.5	178.68
127.6	178.8
127.7	178.94
127.8	179.08
127.9	179.23
128	179.4
128.1	179.57
128.2	179.76
128.3	179.95
128.4	180.15
128.5	180.36
128.6	180.58
128.7	180.81
128.8	181.04
128.9	181.28
129	181.52
129.1	181.77
129.2	182.03
129.3	182.29
129.4	182.55
129.5	182.82
129.6	183.09
129.7	183.36
129.8	183.64
129.9	183.91
130	184.19
130.1	184.47
130.2	184.75
130.3	185.03
130.4	185.31
130.5	185.59
130.6	185.87
130.7	186.14
130.8	186.42
130.9	186.69
131	186.96
131.1	187.23
131.2	187.5
131.3	187.77
131.4	188.03
131.5	188.29
131.6	188.55
131.7	188.8
131.8	189.05
131.9	189.3
132	189.55
132.1	189.79
132.2	190.03
132.3	190.27
132.4	190.5
132.5	190.73
132.6	190.96
132.7	191.19
132.8	191.41
132.9	191.63
133	191.85
133.1	192.06
133.2	192.28
133.3	192.49
133.4	192.69
133.5	192.9
133.6	193.1
133.7	193.31
133.8	193.51
133.9	193.7
134	193.9
134.1	194.09
134.2	194.29
134.3	194.48
134.4	194.67
134.5	194.86
134.6	195.05
134.7	195.24
134.8	195.42
134.9	195.61
135	195.79
135.1	195.98
135.2	196.16
135.3	196.35
135.4	196.53
135.5	196.71
135.6	196.9
135.7	197.08
135.8	197.26
135.9	197.45
136	197.63
136.1	197.81
136.2	198
136.3	198.18
136.4	198.36
136.5	198.55
136.6	198.73
136.7	198.92
136.8	199.1
136.9	199.29
137	199.47
137.1	199.66
137.2	199.84
137.3	200.03
137.4	200.22
137.5	200.41
137.6	200.6
137.7	200.78
137.8	200.97
137.9	201.16
138	201.35
138.1	201.54
138.2	201.73
138.3	201.93
138.4	202.12
138.5	202.31
138.6	202.5
138.7	202.69
138.8	202.89
138.9	203.08
139	203.28
139.1	203.47
139.2	203.66
139.3	203.86
139.4	204.05
139.5	204.25
139.6	204.44
139.7	204.64
139.8	204.84
139.9	205.03
140	205.23
140.1	205.42
140.2	205.62
140.3	205.82
140.4	206.01
140.5	206.21
140.6	206.41
140.7	206.6
140.8	206.8
140.9	207
141	207.19
141.1	207.39
141.2	207.59
141.3	207.78
141.4	207.98
141.5	208.18
141.6	208.37
141.7	208.57
141.8	208.77
141.9	208.96
142	209.16
142.1	209.36
142.2	209.55
142.3	209.75
142.4	209.95
142.5	210.14
142.6	210.34
142.7	210.53
142.8	210.73
142.9	210.93
143	211.12
143.1	211.32
143.2	211.51
143.3	211.71
143.4	211.9
143.5	212.1
143.6	212.3
143.7	212.49
143.8	212.69
143.9	212.88
144	213.08
144.1	213.27
144.2	213.47
144.3	213.66
144.4	213.86
144.5	214.05
144.6	214.25
144.7	214.44
144.8	214.64
144.9	214.83
145	215.03
145.1	215.22
145.2	215.41
145.3	215.61
145.4	215.8
145.5	216
145.6	216.19
145.7	216.39
145.8	216.58
145.9	216.78
146	216.97
146.1	217.17
146.2	217.36
146.3	217.56
146.4	217.75
146.5	217.94
146.6	218.14
146.7	218.33
146.8	218.53
146.9	218.72
147	218.92
147.1	219.11
147.2	219.31
147.3	219.5
147.4	219.69
147.5	219.89
147.6	220.08
147.7	220.28
147.8	220.47
147.9	220.67
148	220.86
148.1	221.06
148.2	221.25
148.3	221.45
148.4	221.64
148.5	221.84
148.6	222.03
148.7	222.23
148.8	222.42
148.9	222.61
149	222.81
149.1	223
149.2	223.2
149.3	223.39
149.4	223.59
149.5	223.78
149.6	223.98
149.7	224.17
149.8	224.37
149.9	224.56
150	224.76
150.1	224.95
150.2	225.15
150.3	225.34
150.4	225.54
150.5	225.73
150.6	225.93
150.7	226.12
150.8	226.32
150.9	226.51
151	226.71
151.1	226.9
151.2	227.1
151.3	227.29
151.4	227.49
151.5	227.68
151.6	227.88
151.7	228.07
151.8	228.26
151.9	228.46
152	228.65
152.1	228.85
152.2	229.04
152.3	229.24
152.4	229.43
152.5	229.63
152.6	229.82
152.7	230.02
152.8	230.21
152.9	230.41
153	230.6
153.1	230.8
153.2	230.99
153.3	231.19
153.4	231.38
153.5	231.58
153.6	231.77
153.7	231.97
153.8	232.16
153.9	232.36
154	232.55
154.1	232.75
154.2	232.94
154.3	233.14
154.4	233.33
154.5	233.53
154.6	233.72
154.7	233.92
154.8	234.11
154.9	234.31
155	234.5
155.1	234.7
155.2	234.89
155.3	235.08
155.4	235.28
155.5	235.47
155.6	235.67
155.7	235.86
155.8	236.06
155.9	236.25
156	236.45
156.1	236.64
156.2	236.84
156.3	237.03
156.4	237.23
156.5	237.42
156.6	237.62
156.7	237.81
156.8	238.01
156.9	238.2
157	238.4
157.1	238.59
157.2	238.79
157.3	238.98
157.4	239.18
157.5	239.37
157.6	239.57
157.7	239.76
157.8	239.96
157.9	240.15
158	240.34
158.1	240.54
158.2	240.73
158.3	240.93
158.4	241.12
158.5	241.32
158.6	241.51
158.7	241.71
158.8	241.9
158.9	242.1
159	242.29
159.1	242.49
159.2	242.68
159.3	242.88
159.4	243.07
159.5	243.27
159.6	243.46
159.7	243.66
159.8	243.85
159.9	244.05
160	244.24
160.1	244.44
160.2	244.63
160.3	244.83
160.4	245.02
160.5	245.22
160.6	245.41
160.7	245.61
160.8	245.8
160.9	245.99
161	246.19
161.1	246.38
161.2	246.58
161.3	246.77
161.4	246.97
161.5	247.16
161.6	247.36
161.7	247.55
161.8	247.75
161.9	247.94
162	248.14
162.1	248.33
162.2	248.53
162.3	248.72
162.4	248.92
162.5	249.11
162.6	249.31
162.7	249.5
162.8	249.7
162.9	249.89
163	250.09
163.1	250.28
163.2	250.48
163.3	250.67
163.4	250.87
163.5	251.06
163.6	251.26
163.7	251.45
163.8	251.64
163.9	251.84
164	252.03
164.1	252.23
164.2	252.42
164.3	252.62
164.4	252.81
164.5	253.01
164.6	253.2
164.7	253.4
164.8	253.59
164.9	253.79
165	253.98
165.1	254.18
165.2	254.37
165.3	254.57
165.4	254.76
165.5	254.96
165.6	255.15
165.7	255.35
165.8	255.54
165.9	255.74
166	255.93
166.1	256.13
166.2	256.32
166.3	256.52
166.4	256.71
166.5	256.91
166.6	257.1
166.7	257.29
166.8	257.49
166.9	257.68
167	257.88
167.1	258.07
167.2	258.27
167.3	258.46
167.4	258.66
167.5	258.85
167.6	259.05
167.7	259.24
167.8	259.44
167.9	259.63
168	259.83
168.1	260.02
168.2	260.22
168.3	260.41
168.4	260.61
168.5	260.8
168.6	261
168.7	261.19
168.8	261.39
168.9	261.58
169	261.78
169.1	261.97
169.2	262.17
169.3	262.36
169.4	262.56
169.5	262.75
169.6	262.95
169.7	263.14
169.8	263.33
169.9	263.53
170	263.72
170.1	263.92
170.2	264.11
170.3	264.31
170.4	264.5
170.5	264.7
170.6	264.89
170.7	265.09
170.8	265.28
170.9	265.48
171	265.67
171.1	265.87
171.2	266.06
171.3	266.26
171.4	266.45
171.5	266.65
171.6	266.84
171.7	267.04
171.8	267.23
171.9	267.43
172	267.62
172.1	267.82
172.2	268.01
172.3	268.21
172.4	268.4
172.5	268.59
172.6	268.79
172.7	268.98
172.8	269.18
172.9	269.37
173	269.57
173.1	269.76
173.2	269.96
173.3	270.15
173.4	270.35
173.5	270.54
173.6	270.74
173.7	270.93
173.8	271.13
173.9	271.32
174	271.52
174.1	271.71
174.2	271.91
174.3	272.1
174.4	272.3
174.5	272.49
174.6	272.68
174.7	272.88
174.8	273.07
174.9	273.27
175	273.46
175.1	273.66
175.2	273.85
175.3	274.05
175.4	274.24
175.5	274.44
175.6	274.63
175.7	274.83
175.8	275.02
175.9	275.22
176	275.41
176.1	275.61
176.2	275.8
176.3	276
176.4	276.19
176.5	276.39
176.6	276.58
176.7	276.78
176.8	276.97
176.9	277.17
177	277.36
177.1	277.56
177.2	277.75
177.3	277.95
177.4	278.14
177.5	278.34
177.6	278.53
177.7	278.73
177.8	278.92
177.9	279.12
178	279.31
178.1	279.51
178.2	279.7
178.3	279.9
178.4	280.09
178.5	280.29
178.6	280.48
178.7	280.68
178.8	280.87
178.9	281.07
179	281.26
179.1	281.46
179.2	281.65
179.3	281.85
179.4	282.04
179.5	282.24
179.6	282.43
179.7	282.63
179.8	282.82
179.9	283.02
180	283.22
180.1	283.41
180.2	283.61
180.3	283.8
180.4	284
180.5	284.19
180.6	284.39
180.7	284.58
180.8	284.78
180.9	284.97
181	285.17
181.1	285.36
181.2	285.56
181.3	285.75
181.4	285.95
181.5	286.14
181.6	286.33
181.7	286.53
181.8	286.72
181.9	286.92
182	287.11
182.1	287.31
182.2	287.5
182.3	287.69
182.4	287.89
182.5	288.08
182.6	288.27
182.7	288.47
182.8	288.66
182.9	288.85
183	289.05
183.1	289.24
183.2	289.43
183.3	289.62
183.4	289.81
183.5	290.01
183.6	290.2
183.7	290.39
183.8	290.58
183.9	290.77
184	290.96
184.1	291.15
184.2	291.34
184.3	291.53
184.4	291.73
184.5	291.92
184.6	292.11
184.7	292.29
184.8	292.48
184.9	292.67
185	292.86
185.1	293.05
185.2	293.24
185.3	293.43
185.4	293.62
185.5	293.81
185.6	294
185.7	294.18
185.8	294.37
185.9	294.56
186	294.75
186.1	294.93
186.2	295.12
186.3	295.31
186.4	295.5
186.5	295.68
186.6	295.87
186.7	296.06
186.8	296.25
186.9	296.43
187	296.62
187.1	296.81
187.2	296.99
187.3	297.18
187.4	297.37
187.5	297.55
187.6	297.74
187.7	297.93
187.8	298.11
187.9	298.3
188	298.49
188.1	298.67
188.2	298.86
188.3	299.05
188.4	299.23
188.5	299.42
188.6	299.61
188.7	299.79
188.8	299.98
188.9	300.17
189	300.35
189.1	300.54
189.2	300.72
189.3	300.91
189.4	301.1
189.5	301.28
189.6	301.47
189.7	301.66
189.8	301.84
189.9	302.03
190	302.22
190.1	302.4
190.2	302.59
190.3	302.78
190.4	302.96
190.5	303.15
190.6	303.34
190.7	303.52
190.8	303.71
190.9	303.9
191	304.09
191.1	304.27
191.2	304.46
191.3	304.65
191.4	304.83
191.5	305.02
191.6	305.21
191.7	305.39
191.8	305.58
191.9	305.77
192	305.95
192.1	306.14
192.2	306.33
192.3	306.52
192.4	306.7
192.5	306.89
192.6	307.08
192.7	307.26
192.8	307.45
192.9	307.64
193	307.82
193.1	308.01
193.2	308.2
193.3	308.39
193.4	308.57
193.5	308.76
193.6	308.95
193.7	309.13
193.8	309.32
193.9	309.51
194	309.69
194.1	309.88
194.2	310.07
194.3	310.26
194.4	310.44
194.5	310.63
194.6	310.82
194.7	311
194.8	311.19
194.9	311.38
195	311.56
195.1	311.75
195.2	311.94
195.3	312.13
195.4	312.31
195.5	312.5
195.6	312.69
195.7	312.87
195.8	313.06
195.9	313.25
196	313.43
196.1	313.62
196.2	313.81
196.3	314
196.4	314.18
196.5	314.37
196.6	314.56
196.7	314.74
196.8	314.93
196.9	315.12
197	315.3
197.1	315.49
197.2	315.68
197.3	315.87
197.4	316.05
197.5	316.24
197.6	316.43
197.7	316.61
197.8	316.8
197.9	316.99
198	317.17
198.1	317.36
198.2	317.55
198.3	317.74
198.4	317.92
198.5	318.11
198.6	318.3
198.7	318.48
198.8	318.67
198.9	318.86
199	319.04
199.1	319.23
199.2	319.42
199.3	319.6
199.4	319.79
199.5	319.98
199.6	320.17
199.7	320.35
199.8	320.54
199.9	320.73
200	320.91
200.1	321.1
200.2	321.29
200.3	321.47
200.4	321.66
200.5	321.85
200.6	322.03
200.7	322.22
200.8	322.41
200.9	322.6
201	322.78
201.1	322.97
201.2	323.16
201.3	323.34
201.4	323.53
201.5	323.72
201.6	323.9
201.7	324.09
201.8	324.28
201.9	324.47
202	324.65
202.1	324.84
202.2	325.03
202.3	325.21
202.4	325.4
202.5	325.59
202.6	325.77
202.7	325.96
202.8	326.15
202.9	326.33
203	326.52
203.1	326.71
203.2	326.9
203.3	327.08
203.4	327.27
203.5	327.46
203.6	327.64
203.7	327.83
203.8	328.02
203.9	328.2
204	328.39
204.1	328.58
204.2	328.77
204.3	328.95
204.4	329.14
204.5	329.33
204.6	329.51
204.7	329.7
204.8	329.89
204.9	330.07
205	330.26
205.1	330.45
205.2	330.63
205.3	330.82
205.4	331.01
205.5	331.2
205.6	331.38
205.7	331.57
205.8	331.76
205.9	331.94
206	332.13
206.1	332.32
206.2	332.5
206.3	332.69
206.4	332.88
206.5	333.07
206.6	333.25
206.7	333.44
206.8	333.63
206.9	333.81
207	334
207.1	334.19
207.2	334.37
207.3	334.56
207.4	334.75
207.5	334.93
207.6	335.12
207.7	335.31
207.8	335.5
207.9	335.68
208	335.87
208.1	336.06
208.2	336.24
208.3	336.43
208.4	336.62
208.5	336.8
208.6	336.99
208.7	337.18
208.8	337.37
208.9	337.55
209	337.74
209.1	337.93
209.2	338.11
209.3	338.3
209.4	338.49
209.5	338.67
209.6	338.86
209.7	339.05
209.8	339.23
209.9	339.42
210	339.61
210.1	339.8
210.2	339.98
210.3	340.17
210.4	340.36
210.5	340.54
210.6	340.73
210.7	340.92
210.8	341.1
210.9	341.29
211	341.48
211.1	341.67
211.2	341.85
211.3	342.04
211.4	342.23
211.5	342.41
211.6	342.6
211.7	342.79
211.8	342.97
211.9	343.16
212	343.35
212.1	343.53
212.2	343.72
212.3	343.91
212.4	344.1
212.5	344.28
212.6	344.47
212.7	344.66
212.8	344.84
212.9	345.03
213	345.22
213.1	345.4
213.2	345.59
213.3	345.78
213.4	345.97
213.5	346.15
213.6	346.34
213.7	346.53
213.8	346.71
213.9	346.9
214	347.09
214.1	347.27
214.2	347.46
214.3	347.65
214.4	347.83
214.5	348.02
214.6	348.21
214.7	348.4
214.8	348.58
214.9	348.77
215	348.96
215.1	349.14
215.2	349.33
215.3	349.52
215.4	349.7
215.5	349.89
215.6	350.08
215.7	350.27
215.8	350.45
215.9	350.64
216	350.83
216.1	351.01
216.2	351.2
216.3	351.39
216.4	351.57
216.5	351.76
216.6	351.95
216.7	352.13
216.8	352.32
216.9	352.51
217	352.7
217.1	352.88
217.2	353.07
217.3	353.26
217.4	353.44
217.5	353.63
217.6	353.82
217.7	354
217.8	354.19
217.9	354.38
218	354.57
218.1	354.75
218.2	354.94
218.3	355.13
218.4	355.31
218.5	355.5
218.6	355.69
218.7	355.87
218.8	356.06
218.9	356.25
219	356.43
219.1	356.62
219.2	356.81
219.3	357
219.4	357.18
219.5	357.37
219.6	357.56
219.7	357.74
219.8	357.93
219.9	358.12
220	358.3
220.1	358.49
220.2	358.68
220.3	358.87
220.4	359.05
220.5	359.24
220.6	359.43
220.7	359.61
220.8	359.8
220.9	359.99
221	360.17
221.1	360.36
221.2	360.55
221.3	360.73
221.4	360.92
221.5	361.11
221.6	361.3
221.7	361.48
221.8	361.67
221.9	361.86
222	362.04
222.1	362.23
222.2	362.42
222.3	362.6
222.4	362.79
222.5	362.98
222.6	363.17
222.7	363.35
222.8	363.54
222.9	363.73
223	363.91
223.1	364.1
223.2	364.29
223.3	364.47
223.4	364.66
223.5	364.85
223.6	365.03
223.7	365.22
223.8	365.41
223.9	365.6
224	365.78
224.1	365.97
224.2	366.16
224.3	366.34
224.4	366.53
224.5	366.72
224.6	366.9
224.7	367.09
224.8	367.28
224.9	367.47
225	367.65
225.1	367.84
225.2	368.03
225.3	368.21
225.4	368.4
225.5	368.59
225.6	368.77
225.7	368.96
225.8	369.15
225.9	369.33
226	369.52
226.1	369.71
226.2	369.9
226.3	370.08
226.4	370.27
226.5	370.46
226.6	370.64
226.7	370.83
226.8	371.02
226.9	371.2
227	371.39
227.1	371.58
227.2	371.77
227.3	371.95
227.4	372.14
227.5	372.33
227.6	372.51
227.7	372.7
227.8	372.89
227.9	373.07
228	373.26
228.1	373.45
228.2	373.64
228.3	373.82
228.4	374.01
228.5	374.2
228.6	374.38
228.7	374.57
228.8	374.76
228.9	374.94
229	375.13
229.1	375.32
229.2	375.5
229.3	375.69
229.4	375.88
229.5	376.07
229.6	376.25
229.7	376.44
229.8	376.63
229.9	376.81
230	377
230.1	377.19
230.2	377.37
230.3	377.56
230.4	377.75
230.5	377.93
230.6	378.12
230.7	378.31
230.8	378.5
230.9	378.68
231	378.87
231.1	379.06
231.2	379.24
231.3	379.43
231.4	379.62
231.5	379.8
231.6	379.99
231.7	380.18
231.8	380.36
231.9	380.55
232	380.74
232.1	380.93
232.2	381.11
232.3	381.3
232.4	381.49
232.5	381.67
232.6	381.86
232.7	382.05
232.8	382.23
232.9	382.42
233	382.61
233.1	382.79
233.2	382.98
233.3	383.17
233.4	383.36
233.5	383.54
233.6	383.73
233.7	383.92
233.8	384.1
233.9	384.29
234	384.48
234.1	384.66
234.2	384.85
234.3	385.04
234.4	385.22
234.5	385.41
234.6	385.6
234.7	385.79
234.8	385.97
234.9	386.16
235	386.35
235.1	386.53
235.2	386.72
235.3	386.91
235.4	387.09
235.5	387.28
235.6	387.47
235.7	387.66
235.8	387.84
235.9	388.03
236	388.22
236.1	388.4
236.2	388.59
236.3	388.78
236.4	388.97
236.5	389.15
236.6	389.34
236.7	389.53
236.8	389.71
236.9	389.9
237	390.09
237.1	390.28
237.2	390.46
237.3	390.65
237.4	390.84
237.5	391.03
237.6	391.21
237.7	391.4
237.8	391.59
237.9	391.78
238	391.96
238.1	392.15
238.2	392.34
238.3	392.52
238.4	392.71
238.5	392.9
238.6	393.09
238.7	393.27
238.8	393.46
238.9	393.65
239	393.84
239.1	394.02
239.2	394.21
239.3	394.4
239.4	394.58
239.5	394.77
239.6	394.96
239.7	395.15
239.8	395.33
239.9	395.52
240	395.71
240.1	395.89
240.2	396.08
240.3	396.27
240.4	396.45
240.5	396.64
240.6	396.83
240.7	397.01
240.8	397.2
240.9	397.38
241	397.57
241.1	397.76
241.2	397.94
241.3	398.13
241.4	398.31
241.5	398.5
241.6	398.69
241.7	398.87
241.8	399.06
241.9	399.24
242	399.43
242.1	399.61
242.2	399.8
242.3	399.98
242.4	400.17
242.5	400.35
242.6	400.54
242.7	400.72
242.8	400.91
242.9	401.09
243	401.27
243.1	401.46
243.2	401.64
243.3	401.83
243.4	402.01
243.5	402.2
243.6	402.38
243.7	402.57
243.8	402.75
243.9	402.93
244	403.12
244.1	403.3
244.2	403.49
244.3	403.67
244.4	403.86
244.5	404.04
244.6	404.23
244.7	404.42
244.8	404.6
244.9	404.79
245	404.97
245.1	405.16
245.2	405.35
245.3	405.54
245.4	405.72
245.5	405.91
245.6	406.1
245.7	406.29
245.8	406.48
245.9	406.67
246	406.86
246.1	407.05
246.2	407.24
246.3	407.43
246.4	407.62
246.5	407.82
246.6	408.01
246.7	408.2
246.8	408.4
246.9	408.59
247	408.79
247.1	408.98
247.2	409.18
247.3	409.38
247.4	409.57
247.5	409.77
247.6	409.97
247.7	410.17
247.8	410.37
247.9	410.57
248	410.77
248.1	410.97
248.2	411.17
248.3	411.37
248.4	411.57
248.5	411.77
248.6	411.97
248.7	412.17
248.8	412.37
248.9	412.57
249	412.77
249.1	412.97
249.2	413.17
249.3	413.36
249.4	413.56
249.5	413.76
249.6	413.95
249.7	414.15
249.8	414.34
249.9	414.53
250	414.72
250.1	414.91
250.2	415.09
250.3	415.28
250.4	415.46
250.5	415.64
250.6	415.82
250.7	415.99
250.8	416.16
250.9	416.33
251	416.49
251.1	416.66
251.2	416.81
251.3	416.97
251.4	417.12
251.5	417.27
251.6	417.41
251.7	417.55
251.8	417.68
251.9	417.81
252	417.94
252.1	418.06
252.2	418.17
252.3	418.28
252.4	418.39
252.5	418.49
252.6	418.58
252.7	418.67
252.8	418.75
252.9	418.83
253	418.91
253.1	418.98
253.2	419.04
253.3	419.1
253.4	419.15
253.5	419.19
253.6	419.24
253.7	419.27
253.8	419.3
253.9	419.33
254	419.35
254.1	419.37
254.2	419.38
254.3	419.39
254.4	419.39
254.5	419.39
254.6	419.38
254.7	419.38
254.8	419.36
254.9	419.35
255	419.33
255.1	419.3
255.2	419.28
255.3	419.25
255.4	419.21
255.5	419.18
255.6	419.14
255.7	419.1
255.8	419.06
255.9	419.01
256	418.97
256.1	418.92
256.2	418.87
256.3	418.82
256.4	418.77
256.5	418.71
256.6	418.66
256.7	418.6
256.8	418.55
256.9	418.49
257	418.43
257.1	418.38
257.2	418.32
257.3	418.26
257.4	418.2
257.5	418.14
257.6	418.08
257.7	418.02
257.8	417.96
257.9	417.91
258	417.85
258.1	417.79
258.2	417.73
258.3	417.67
258.4	417.62
258.5	417.56
258.6	417.5
258.7	417.45
258.8	417.39
258.9	417.34
259	417.28
259.1	417.23
259.2	417.18
259.3	417.12
259.4	417.07
259.5	417.02
259.6	416.97
259.7	416.92
259.8	416.87
259.9	416.82
260	416.77
260.1	416.72
260.2	416.67
260.3	416.63
260.4	416.58
260.5	416.53
260.6	416.49
260.7	416.44
260.8	416.39
260.9	416.35
261	416.3
261.1	416.26
261.2	416.21
261.3	416.17
261.4	416.12
261.5	416.08
261.6	416.04
261.7	415.99
261.8	415.95
261.9	415.91
262	415.86
262.1	415.82
262.2	415.78
262.3	415.73
262.4	415.69
262.5	415.65
262.6	415.61
262.7	415.56
262.8	415.52
262.9	415.48
263	415.44
263.1	415.39
263.2	415.35
263.3	415.31
263.4	415.26
263.5	415.22
263.6	415.18
263.7	415.13
263.8	415.09
263.9	415.05
264	415
264.1	414.96
264.2	414.92
264.3	414.87
264.4	414.83
264.5	414.78
264.6	414.74
264.7	414.7
264.8	414.65
264.9	414.61
265	414.56
265.1	414.52
265.2	414.47
265.3	414.43
265.4	414.39
265.5	414.34
265.6	414.3
265.7	414.25
265.8	414.21
265.9	414.16
266	414.12
266.1	414.07
266.2	414.02
266.3	413.98
266.4	413.93
266.5	413.89
266.6	413.84
266.7	413.8
266.8	413.75
266.9	413.71
267	413.66
267.1	413.62
267.2	413.57
267.3	413.52
267.4	413.48
267.5	413.43
267.6	413.39
267.7	413.34
267.8	413.3
267.9	413.25
268	413.2
268.1	413.16
268.2	413.11
268.3	413.07
268.4	413.02
268.5	412.98
268.6	412.93
268.7	412.88
268.8	412.84
268.9	412.79
269	412.75
269.1	412.7
269.2	412.66
269.3	412.61
269.4	412.56
269.5	412.52
269.6	412.47
269.7	412.43
269.8	412.38
269.9	412.34
270	412.29
270.1	412.24
270.2	412.2
270.3	412.15
270.4	412.11
270.5	412.06
270.6	412.02
270.7	411.97
270.8	411.93
270.9	411.88
271	411.84
271.1	411.79
271.2	411.74
271.3	411.7
271.4	411.65
271.5	411.61
271.6	411.56
271.7	411.52
271.8	411.47
271.9	411.43
272	411.38
272.1	411.34
272.2	411.29
272.3	411.25
272.4	411.2
272.5	411.16
272.6	411.11
272.7	411.06
272.8	411.02
272.9	410.97
273	410.93
273.1	410.88
273.2	410.84
273.3	410.79
273.4	410.75
273.5	410.7
273.6	410.66
273.7	410.61
273.8	410.57
273.9	410.52
274	410.48
274.1	410.43
274.2	410.39
274.3	410.34
274.4	410.3
274.5	410.25
274.6	410.2
274.7	410.16
274.8	410.11
274.9	410.07
275	410.02
275.1	409.98
275.2	409.93
275.3	409.89
275.4	409.84
275.5	409.8
275.6	409.75
275.7	409.71
275.8	409.66
275.9	409.62
276	409.57
276.1	409.52
276.2	409.48
276.3	409.43
276.4	409.39
276.5	409.34
276.6	409.3
276.7	409.25
276.8	409.21
276.9	409.16
277	409.12
277.1	409.07
277.2	409.03
277.3	408.98
277.4	408.94
277.5	408.89
277.6	408.84
277.7	408.8
277.8	408.75
277.9	408.71
278	408.66
278.1	408.62
278.2	408.57
278.3	408.53
278.4	408.48
278.5	408.44
278.6	408.39
278.7	408.35
278.8	408.3
278.9	408.25
279	408.21
279.1	408.16
279.2	408.12
279.3	408.07
279.4	408.03
279.5	407.98
279.6	407.94
279.7	407.89
279.8	407.85
279.9	407.8
280	407.76
280.1	407.71
280.2	407.67
280.3	407.62
280.4	407.57
280.5	407.53
280.6	407.48
280.7	407.44
280.8	407.39
280.9	407.35
281	407.3
281.1	407.26
281.2	407.21
281.3	407.17
281.4	407.12
281.5	407.08
281.6	407.03
281.7	406.98
281.8	406.94
281.9	406.89
282	406.85
282.1	406.8
282.2	406.76
282.3	406.71
282.4	406.67
282.5	406.62
282.6	406.58
282.7	406.53
282.8	406.49
282.9	406.44
283	406.4
283.1	406.35
283.2	406.3
283.3	406.26
283.4	406.21
283.5	406.17
283.6	406.12
283.7	406.08
283.8	406.03
283.9	405.99
284	405.94
284.1	405.9
284.2	405.85
284.3	405.81
284.4	405.76
284.5	405.72
284.6	405.67
284.7	405.62
284.8	405.58
284.9	405.53
285	405.49
285.1	405.44
285.2	405.4
285.3	405.35
285.4	405.31
285.5	405.26
285.6	405.22
285.7	405.17
285.8	405.13
285.9	405.08
286	405.03
286.1	404.99
286.2	404.94
286.3	404.9
286.4	404.85
286.5	404.81
286.6	404.76
286.7	404.72
286.8	404.67
286.9	404.63
287	404.58
287.1	404.54
287.2	404.49
287.3	404.45
287.4	404.4
287.5	404.35
287.6	404.31
287.7	404.26
287.8	404.22
287.9	404.17
288	404.13
288.1	404.08
288.2	404.04
288.3	403.99
288.4	403.95
288.5	403.9
288.6	403.86
288.7	403.81
288.8	403.77
288.9	403.72
289	403.67
289.1	403.63
289.2	403.58
289.3	403.54
289.4	403.49
289.5	403.45
289.6	403.4
289.7	403.36
289.8	403.31
289.9	403.27
290	403.22
290.1	403.18
290.2	403.13
290.3	403.08
290.4	403.04
290.5	402.99
290.6	402.95
290.7	402.9
290.8	402.86
290.9	402.81
291	402.77
291.1	402.72
291.2	402.68
291.3	402.63
291.4	402.59
291.5	402.54
291.6	402.5
291.7	402.45
291.8	402.4
291.9	402.36
292	402.31
292.1	402.27
292.2	402.22
292.3	402.18
292.4	402.13
292.5	402.09
292.6	402.04
292.7	402
292.8	401.95
292.9	401.91
293	401.86
293.1	401.82
293.2	401.77
293.3	401.72
293.4	401.68
293.5	401.63
293.6	401.59
293.7	401.54
293.8	401.5
293.9	401.45
294	401.41
294.1	401.36
294.2	401.32
294.3	401.27
294.4	401.23
294.5	401.18
294.6	401.13
294.7	401.09
294.8	401.04
294.9	401
295	400.95
295.1	400.91
295.2	400.86
295.3	400.82
295.4	400.77
295.5	400.73
295.6	400.68
295.7	400.64
295.8	400.59
295.9	400.55
296	400.5
296.1	400.45
296.2	400.41
296.3	400.36
296.4	400.32
296.5	400.27
296.6	400.23
296.7	400.18
296.8	400.14
296.9	400.09
297	400.05
297.1	400
297.2	399.96
297.3	399.91
297.4	399.87
297.5	399.82
297.6	399.77
297.7	399.73
297.8	399.68
297.9	399.64
298	399.59
298.1	399.55
298.2	399.5
298.3	399.46
298.4	399.41
298.5	399.37
298.6	399.32
298.7	399.28
298.8	399.23
298.9	399.18
299	399.14
299.1	399.09
299.2	399.05
299.3	399
299.4	398.96
299.5	398.91
299.6	398.87
299.7	398.82
299.8	398.78
299.9	398.73
300	398.69
300.1	398.64
300.2	398.6
300.3	398.55
300.4	398.5
300.5	398.46
300.6	398.41
300.7	398.37
300.8	398.32
300.9	398.28
301	398.23
301.1	398.19
301.2	398.14
301.3	398.1
301.4	398.05
301.5	398.01
301.6	397.96
301.7	397.92
301.8	397.87
301.9	397.82
302	397.78
302.1	397.73
302.2	397.69
302.3	397.64
302.4	397.6
302.5	397.55
302.6	397.51
302.7	397.46
302.8	397.42
302.9	397.37
303	397.33
303.1	397.28
303.2	397.23
303.3	397.19
303.4	397.14
303.5	397.1
303.6	397.05
303.7	397.01
303.8	396.96
303.9	396.92
304	396.87
304.1	396.83
304.2	396.78
304.3	396.74
304.4	396.69
304.5	396.65
304.6	396.6
304.7	396.55
304.8	396.51
304.9	396.46
305	396.42
305.1	396.37
305.2	396.33
305.3	396.28
305.4	396.24
305.5	396.19
305.6	396.15
305.7	396.1
305.8	396.06
305.9	396.01
306	395.97
306.1	395.92
306.2	395.87
306.3	395.83
306.4	395.78
306.5	395.74
306.6	395.69
306.7	395.65
306.8	395.6
306.9	395.56
307	395.51
307.1	395.47
307.2	395.42
307.3	395.38
307.4	395.33
307.5	395.28
307.6	395.24
307.7	395.19
307.8	395.15
307.9	395.1
308	395.06
308.1	395.01
308.2	394.97
308.3	394.92
308.4	394.88
308.5	394.83
308.6	394.79
308.7	394.74
308.8	394.7
308.9	394.65
309	394.6
309.1	394.56
309.2	394.51
309.3	394.47
309.4	394.42
309.5	394.38
309.6	394.33
309.7	394.29
309.8	394.24
309.9	394.2
310	394.15
310.1	394.11
310.2	394.06
310.3	394.02
310.4	393.97
310.5	393.92
310.6	393.88
310.7	393.83
310.8	393.79
310.9	393.74
311	393.7
311.1	393.65
311.2	393.61
311.3	393.56
311.4	393.52
311.5	393.47
311.6	393.43
311.7	393.38
311.8	393.33
311.9	393.29
312	393.24
312.1	393.2
312.2	393.15
312.3	393.11
312.4	393.06
312.5	393.02
312.6	392.97
312.7	392.93
312.8	392.88
312.9	392.84
313	392.79
313.1	392.75
313.2	392.7
313.3	392.65
313.4	392.61
313.5	392.56
313.6	392.52
313.7	392.47
313.8	392.43
313.9	392.38
314	392.34
314.1	392.29
314.2	392.25
314.3	392.2
314.4	392.16
314.5	392.11
314.6	392.07
314.7	392.02
314.8	391.97
314.9	391.93
315	391.88
315.1	391.84
315.2	391.79
315.3	391.75
315.4	391.7
315.5	391.66
315.6	391.61
315.7	391.57
315.8	391.52
315.9	391.48
316	391.43
316.1	391.38
316.2	391.34
316.3	391.29
316.4	391.25
316.5	391.2
316.6	391.16
316.7	391.11
316.8	391.07
316.9	391.02
317	390.98
317.1	390.93
317.2	390.89
317.3	390.84
317.4	390.8
317.5	390.75
317.6	390.7
317.7	390.66
317.8	390.61
317.9	390.57
318	390.52
318.1	390.48
318.2	390.43
318.3	390.39
318.4	390.34
318.5	390.3
318.6	390.25
318.7	390.21
318.8	390.16
318.9	390.12
319	390.07
319.1	390.02
319.2	389.98
319.3	389.93
319.4	389.89
319.5	389.84
319.6	389.8
319.7	389.75
319.8	389.71
319.9	389.66
320	389.62
320.1	389.57
320.2	389.53
320.3	389.48
320.4	389.43
320.5	389.39
320.6	389.34
320.7	389.3
320.8	389.25
320.9	389.21
321	389.16
321.1	389.12
321.2	389.07
321.3	389.03
321.4	388.98
321.5	388.94
321.6	388.89
321.7	388.85
321.8	388.8
321.9	388.75
322	388.71
322.1	388.66
322.2	388.62
322.3	388.57
322.4	388.53
322.5	388.48
322.6	388.44
322.7	388.39
322.8	388.35
322.9	388.3
323	388.26
323.1	388.21
323.2	388.17
323.3	388.12
323.4	388.07
323.5	388.03
323.6	387.98
323.7	387.94
323.8	387.89
323.9	387.85
324	387.8
324.1	387.76
324.2	387.71
324.3	387.67
324.4	387.62
324.5	387.58
324.6	387.53
324.7	387.48
324.8	387.44
324.9	387.39
325	387.35
325.1	387.3
325.2	387.26
325.3	387.21
325.4	387.17
325.5	387.12
325.6	387.08
325.7	387.03
325.8	386.99
325.9	386.94
326	386.9
326.1	386.85
326.2	386.8
326.3	386.76
326.4	386.71
326.5	386.67
326.6	386.62
326.7	386.58
326.8	386.53
326.9	386.49
327	386.44
327.1	386.4
327.2	386.35
327.3	386.31
327.4	386.26
327.5	386.22
327.6	386.17
327.7	386.12
327.8	386.08
327.9	386.03
328	385.99
328.1	385.94
328.2	385.9
328.3	385.85
328.4	385.81
328.5	385.76
328.6	385.72
328.7	385.67
328.8	385.63
328.9	385.58
329	385.53
329.1	385.49
329.2	385.44
329.3	385.4
329.4	385.35
329.5	385.31
329.6	385.26
329.7	385.22
329.8	385.17
329.9	385.13
330	385.08
330.1	385.04
330.2	384.99
330.3	384.95
330.4	384.9
330.5	384.85
330.6	384.81
330.7	384.76
330.8	384.72
330.9	384.67
331	384.63
331.1	384.58
331.2	384.54
331.3	384.49
331.4	384.45
331.5	384.4
331.6	384.36
331.7	384.31
331.8	384.27
331.9	384.22
332	384.17
332.1	384.13
332.2	384.08
332.3	384.04
332.4	383.99
332.5	383.95
332.6	383.9
332.7	383.86
332.8	383.81
332.9	383.77
333	383.72
333.1	383.68
333.2	383.63
333.3	383.58
333.4	383.54
333.5	383.49
333.6	383.45
333.7	383.4
333.8	383.36
333.9	383.31
334	383.27
334.1	383.22
334.2	383.18
334.3	383.13
334.4	383.09
334.5	383.04
334.6	383
334.7	382.95
334.8	382.9
334.9	382.86
335	382.81
335.1	382.77
335.2	382.72
335.3	382.68
335.4	382.63
335.5	382.59
335.6	382.54
335.7	382.5
335.8	382.45
335.9	382.41
336	382.36
336.1	382.32
336.2	382.27
336.3	382.22
336.4	382.18
336.5	382.13
336.6	382.09
336.7	382.04
336.8	382
336.9	381.95
337	381.91
337.1	381.86
337.2	381.82
337.3	381.77
337.4	381.73
337.5	381.68
337.6	381.63
337.7	381.59
337.8	381.54
337.9	381.5
338	381.45
338.1	381.41
338.2	381.36
338.3	381.32
338.4	381.27
338.5	381.23
338.6	381.18
338.7	381.14
338.8	381.09
338.9	381.05
339	381
